N = 6; %nombre d'années dans le futur où on a besoin du plus gros cashdown
LIQUIDE_NOW = 0;
DROITS_CELIAPP_RESTANTS = 0;
DROITS_CELI_RESTANTS = 0;
DROITS_REER_RESTANTS = 0;
NONENR_NOW = 0;
NONENR_GAIN_NOW = 0;
CELI_NOW = 0;
CELIAPP_NOW = 0;
REER_NOW = 0;
ANNEES_CELIAPP_ACCUMULEES = 2;
SALAIRES_FUTURS_IMPOT = [
50000,
50000,
50000,
50000,
50000,
50000
];
DEPENSES = [
30000,
30000,
30000,
30000,
30000,
30000
];
PLAFOND_SALAIRE_FOND_RETRAITE_NOW = 68500;
RATE_FOND_RETRAITE_LOW_NOW = 0.07;
RATE_FOND_RETRAITE_HIGH_NOW = 0.08;
